language ESSENCE' 1.0

letting fixed be 
[
    [1,0,0,0,5,6,0,0,3],
    [0,4,3,0,9,0,0,0,0],
    [8,0,0,0,4,3,0,0,2],
    [0,3,0,5,6,0,2,1,0],
    [9,5,0,4,2,1,0,3,7],
    [0,2,1,0,3,0,0,0,0],
    [3,1,7,9,8,0,0,0,5],
    [0,0,0,3,1,0,9,7,0],
    [0,0,0,6,7,0,3,0,1]
]